data/CVRPLIB/Vrp-Set-XML100/instances/XML100_2115_11.vrp
NAME : XML100_2115_11
COMMENT : Generated by Queiroga, Sadykov, Uchoa, and Vidal (2021)
TYPE : CVRP
DIMENSION : 101
EDGE_WEIGHT_TYPE : EUC_2D
CAPACITY : 24
NODE_COORD_SECTION
1    500  500 
2    755  146 
3    880  432 
4    15   738 
5    931  202 
6    878  367 
7    988  288 
8    865  96  
9    885  590 
10   617  763 
11   214  375 
12   366  261 
13   409  562 
14   166  924 
15   508  183 
16   829  511 
17   593  542 
18   476  483 
19   317  118 
20   243  335 
21   657  337 
22   694  985 
23   631  112 
24   538  184 
25   831  314 
26   516  844 
27   964  810 
28   486  666 
29   465  509 
30   363  969 
31   966  863 
32   850  177 
33   888  441 
34   866  579 
35   716  840 
36   886  386 
37   326  651 
38   308  40  
39   591  607 
40   70   820 
41   238  809 
42   655  410 
43   546  890 
44   943  508 
45   675  343 
46   635  953 
47   430  39  
48   649  255 
49   131  881 
50   95   892 
51   295  878 
52   791  887 
53   77   476 
54   387  327 
55   731  312 
56   990  57  
57   246  419 
58   419  96  
59   594  214 
60   599  379 
61   97   820 
62   190  833 
63   871  122 
64   352  358 
65   678  33  
66   602  444 
67   972  562 
68   790  594 
69   171  690 
70   375  24  
71   747  211 
72   477  624 
73   771  670 
74   810  406 
75   826  462 
76   313  676 
77   161  269 
78   903  917 
79   938  604 
80   22   347 
81   532  108 
82   716  480 
83   782  388 
84   974  77  
85   838  355 
86   455  689 
87   968  678 
88   150  629 
89   409  586 
90   945  519 
91   631  342 
92   539  51  
93   284  882 
94   63   239 
95   683  672 
96   421  256 
97   533  537 
98   846  435 
99   976  925 
100  82   75  
101  594  298 
DEMAND_SECTION
1    0   
2    1   
3    1   
4    1   
5    1   
6    1   
7    1   
8    1   
9    1   
10   1   
11   1   
12   1   
13   1   
14   1   
15   1   
16   1   
17   1   
18   1   
19   1   
20   1   
21   1   
22   1   
23   1   
24   1   
25   1   
26   1   
27   1   
28   1   
29   1   
30   1   
31   1   
32   1   
33   1   
34   1   
35   1   
36   1   
37   1   
38   1   
39   1   
40   1   
41   1   
42   1   
43   1   
44   1   
45   1   
46   1   
47   1   
48   1   
49   1   
50   1   
51   1   
52   1   
53   1   
54   1   
55   1   
56   1   
57   1   
58   1   
59   1   
60   1   
61   1   
62   1   
63   1   
64   1   
65   1   
66   1   
67   1   
68   1   
69   1   
70   1   
71   1   
72   1   
73   1   
74   1   
75   1   
76   1   
77   1   
78   1   
79   1   
80   1   
81   1   
82   1   
83   1   
84   1   
85   1   
86   1   
87   1   
88   1   
89   1   
90   1   
91   1   
92   1   
93   1   
94   1   
95   1   
96   1   
97   1   
98   1   
99   1   
100  1   
101  1   
DEPOT_SECTION
1
-1
EOF
