data/CVRPLIB/Vrp-Set-XML100/solutions/XML100_2115_11.sol
Route #1: 96 38 9 25 42 45 21 34 51 77 98 30 26 86 78 66 89 43 8 33 67 72 94 16
Route #2: 81 15 74 97 32 2 35 5 6 4 83 55 7 62 31 24 84 73 82 54 44 20 41 65
Route #3: 59 90 100 47 70 1 64 22 58 23 14 80 91 57 46 69 37 18 11 95 53 63 17
Route #4: 56 10 19 76 99 93 79 52 87 68 3 39 60 49 48 13 29 50 92 61 40 75 36 12
Route #5: 71 27 85 88 28
Cost 9149
